\* LayerByLayer *\
Maximize
Objective:_Maximize_z_final: z_final
Subject To
_C1: 0_BAD + 0_BADEND + 0_GOOD + 0_GOODEND + 0_OTHER + 0_OTHEREND = 1
_C10: - 4.52098059793e-08 0_BAD - 0_BADEND + 1_BADEND >= 0
_C100: - 1.34133688292e-07 7_BAD - 7_BADEND + 8_BADEND <= 0
_C101: - 4.52098059793e-08 7_BAD - 7_BADEND + 8_BADEND >= 0
_C102: - 1.34133688292e-07 7_GOOD - 7_GOODEND + 8_GOODEND <= 0
_C103: - 4.52098059793e-08 7_GOOD - 7_GOODEND + 8_GOODEND >= 0
_C104: - 1.34133688292e-07 7_OTHER - 7_OTHEREND + 8_OTHEREND <= 0
_C105: - 4.52098059793e-08 7_OTHER - 7_OTHEREND + 8_OTHEREND >= 0
_C106: 9_BAD + 9_BADEND + 9_GOOD + 9_GOODEND + 9_OTHER + 9_OTHEREND = 1
_C107: - 0.99999990958 8_BAD - 1.43495353004e-07 8_GOOD
 - 0.000124519166562 8_OTHER + 9_BAD <= 0
_C108: - 0.999999732003 8_BAD + 9_BAD >= 0
_C109: - 6.22595832812e-08 8_BAD - 0.99999995479 8_GOOD
 - 2.69681255586e-08 8_OTHER + 9_GOOD <= 0
_C11: - 1.34133688292e-07 0_GOOD - 0_GOODEND + 1_GOODEND <= 0
_C110: - 4.52098059793e-08 8_BAD - 0.999999695403 8_GOOD + 9_GOOD >= 0
_C111: - 7.16041811491e-08 8_BAD - 6.11018138507e-08 8_GOOD
 - 0.99999995479 8_OTHER + 9_OTHER <= 0
_C112: - 0.999875127963 8_OTHER + 9_OTHER >= 0
_C113: - 1.34133688292e-07 8_BAD - 8_BADEND + 9_BADEND <= 0
_C114: - 4.52098059793e-08 8_BAD - 8_BADEND + 9_BADEND >= 0
_C115: - 1.34133688292e-07 8_GOOD - 8_GOODEND + 9_GOODEND <= 0
_C116: - 4.52098059793e-08 8_GOOD - 8_GOODEND + 9_GOODEND >= 0
_C117: - 1.34133688292e-07 8_OTHER - 8_OTHEREND + 9_OTHEREND <= 0
_C118: - 4.52098059793e-08 8_OTHER - 8_OTHEREND + 9_OTHEREND >= 0
_C119: 10_BAD + 10_BADEND + 10_GOOD + 10_GOODEND + 10_OTHER + 10_OTHEREND = 1
_C12: - 4.52098059793e-08 0_GOOD - 0_GOODEND + 1_GOODEND >= 0
_C120: 10_BAD - 0.99999990958 9_BAD - 1.43495353004e-07 9_GOOD
 - 0.000124519166562 9_OTHER <= 0
_C121: 10_BAD - 0.999999732003 9_BAD >= 0
_C122: 10_GOOD - 6.22595832812e-08 9_BAD - 0.99999995479 9_GOOD
 - 2.69681255586e-08 9_OTHER <= 0
_C123: 10_GOOD - 4.52098059793e-08 9_BAD - 0.999999695403 9_GOOD >= 0
_C124: 10_OTHER - 7.16041811491e-08 9_BAD - 6.11018138507e-08 9_GOOD
 - 0.99999995479 9_OTHER <= 0
_C125: 10_OTHER - 0.999875127963 9_OTHER >= 0
_C126: 10_BADEND - 1.34133688292e-07 9_BAD - 9_BADEND <= 0
_C127: 10_BADEND - 4.52098059793e-08 9_BAD - 9_BADEND >= 0
_C128: 10_GOODEND - 1.34133688292e-07 9_GOOD - 9_GOODEND <= 0
_C129: 10_GOODEND - 4.52098059793e-08 9_GOOD - 9_GOODEND >= 0
_C13: - 1.34133688292e-07 0_OTHER - 0_OTHEREND + 1_OTHEREND <= 0
_C130: 10_OTHEREND - 1.34133688292e-07 9_OTHER - 9_OTHEREND <= 0
_C131: 10_OTHEREND - 4.52098059793e-08 9_OTHER - 9_OTHEREND >= 0
_C132: - 10_BAD + z_final <= 0
_C14: - 4.52098059793e-08 0_OTHER - 0_OTHEREND + 1_OTHEREND >= 0
_C15: 2_BAD + 2_BADEND + 2_GOOD + 2_GOODEND + 2_OTHER + 2_OTHEREND = 1
_C16: - 0.99999990958 1_BAD - 1.43495353004e-07 1_GOOD
 - 0.000124519166562 1_OTHER + 2_BAD <= 0
_C17: - 0.999999732003 1_BAD + 2_BAD >= 0
_C18: - 6.22595832812e-08 1_BAD - 0.99999995479 1_GOOD
 - 2.69681255586e-08 1_OTHER + 2_GOOD <= 0
_C19: - 4.52098059793e-08 1_BAD - 0.999999695403 1_GOOD + 2_GOOD >= 0
_C2: 1_BAD + 1_BADEND + 1_GOOD + 1_GOODEND + 1_OTHER + 1_OTHEREND = 1
_C20: - 7.16041811491e-08 1_BAD - 6.11018138507e-08 1_GOOD
 - 0.99999995479 1_OTHER + 2_OTHER <= 0
_C21: - 0.999875127963 1_OTHER + 2_OTHER >= 0
_C22: - 1.34133688292e-07 1_BAD - 1_BADEND + 2_BADEND <= 0
_C23: - 4.52098059793e-08 1_BAD - 1_BADEND + 2_BADEND >= 0
_C24: - 1.34133688292e-07 1_GOOD - 1_GOODEND + 2_GOODEND <= 0
_C25: - 4.52098059793e-08 1_GOOD - 1_GOODEND + 2_GOODEND >= 0
_C26: - 1.34133688292e-07 1_OTHER - 1_OTHEREND + 2_OTHEREND <= 0
_C27: - 4.52098059793e-08 1_OTHER - 1_OTHEREND + 2_OTHEREND >= 0
_C28: 3_BAD + 3_BADEND + 3_GOOD + 3_GOODEND + 3_OTHER + 3_OTHEREND = 1
_C29: - 0.99999990958 2_BAD - 1.43495353004e-07 2_GOOD
 - 0.000124519166562 2_OTHER + 3_BAD <= 0
_C3: - 0.99999990958 0_BAD - 1.43495353004e-07 0_GOOD
 - 0.000124519166562 0_OTHER + 1_BAD <= 0
_C30: - 0.999999732003 2_BAD + 3_BAD >= 0
_C31: - 6.22595832812e-08 2_BAD - 0.99999995479 2_GOOD
 - 2.69681255586e-08 2_OTHER + 3_GOOD <= 0
_C32: - 4.52098059793e-08 2_BAD - 0.999999695403 2_GOOD + 3_GOOD >= 0
_C33: - 7.16041811491e-08 2_BAD - 6.11018138507e-08 2_GOOD
 - 0.99999995479 2_OTHER + 3_OTHER <= 0
_C34: - 0.999875127963 2_OTHER + 3_OTHER >= 0
_C35: - 1.34133688292e-07 2_BAD - 2_BADEND + 3_BADEND <= 0
_C36: - 4.52098059793e-08 2_BAD - 2_BADEND + 3_BADEND >= 0
_C37: - 1.34133688292e-07 2_GOOD - 2_GOODEND + 3_GOODEND <= 0
_C38: - 4.52098059793e-08 2_GOOD - 2_GOODEND + 3_GOODEND >= 0
_C39: - 1.34133688292e-07 2_OTHER - 2_OTHEREND + 3_OTHEREND <= 0
_C4: - 0.999999732003 0_BAD + 1_BAD >= 0
_C40: - 4.52098059793e-08 2_OTHER - 2_OTHEREND + 3_OTHEREND >= 0
_C41: 4_BAD + 4_BADEND + 4_GOOD + 4_GOODEND + 4_OTHER + 4_OTHEREND = 1
_C42: - 0.99999990958 3_BAD - 1.43495353004e-07 3_GOOD
 - 0.000124519166562 3_OTHER + 4_BAD <= 0
_C43: - 0.999999732003 3_BAD + 4_BAD >= 0
_C44: - 6.22595832812e-08 3_BAD - 0.99999995479 3_GOOD
 - 2.69681255586e-08 3_OTHER + 4_GOOD <= 0
_C45: - 4.52098059793e-08 3_BAD - 0.999999695403 3_GOOD + 4_GOOD >= 0
_C46: - 7.16041811491e-08 3_BAD - 6.11018138507e-08 3_GOOD
 - 0.99999995479 3_OTHER + 4_OTHER <= 0
_C47: - 0.999875127963 3_OTHER + 4_OTHER >= 0
_C48: - 1.34133688292e-07 3_BAD - 3_BADEND + 4_BADEND <= 0
_C49: - 4.52098059793e-08 3_BAD - 3_BADEND + 4_BADEND >= 0
_C5: - 6.22595832812e-08 0_BAD - 0.99999995479 0_GOOD
 - 2.69681255586e-08 0_OTHER + 1_GOOD <= 0
_C50: - 1.34133688292e-07 3_GOOD - 3_GOODEND + 4_GOODEND <= 0
_C51: - 4.52098059793e-08 3_GOOD - 3_GOODEND + 4_GOODEND >= 0
_C52: - 1.34133688292e-07 3_OTHER - 3_OTHEREND + 4_OTHEREND <= 0
_C53: - 4.52098059793e-08 3_OTHER - 3_OTHEREND + 4_OTHEREND >= 0
_C54: 5_BAD + 5_BADEND + 5_GOOD + 5_GOODEND + 5_OTHER + 5_OTHEREND = 1
_C55: - 0.99999990958 4_BAD - 1.43495353004e-07 4_GOOD
 - 0.000124519166562 4_OTHER + 5_BAD <= 0
_C56: - 0.999999732003 4_BAD + 5_BAD >= 0
_C57: - 6.22595832812e-08 4_BAD - 0.99999995479 4_GOOD
 - 2.69681255586e-08 4_OTHER + 5_GOOD <= 0
_C58: - 4.52098059793e-08 4_BAD - 0.999999695403 4_GOOD + 5_GOOD >= 0
_C59: - 7.16041811491e-08 4_BAD - 6.11018138507e-08 4_GOOD
 - 0.99999995479 4_OTHER + 5_OTHER <= 0
_C6: - 4.52098059793e-08 0_BAD - 0.999999695403 0_GOOD + 1_GOOD >= 0
_C60: - 0.999875127963 4_OTHER + 5_OTHER >= 0
_C61: - 1.34133688292e-07 4_BAD - 4_BADEND + 5_BADEND <= 0
_C62: - 4.52098059793e-08 4_BAD - 4_BADEND + 5_BADEND >= 0
_C63: - 1.34133688292e-07 4_GOOD - 4_GOODEND + 5_GOODEND <= 0
_C64: - 4.52098059793e-08 4_GOOD - 4_GOODEND + 5_GOODEND >= 0
_C65: - 1.34133688292e-07 4_OTHER - 4_OTHEREND + 5_OTHEREND <= 0
_C66: - 4.52098059793e-08 4_OTHER - 4_OTHEREND + 5_OTHEREND >= 0
_C67: 6_BAD + 6_BADEND + 6_GOOD + 6_GOODEND + 6_OTHER + 6_OTHEREND = 1
_C68: - 0.99999990958 5_BAD - 1.43495353004e-07 5_GOOD
 - 0.000124519166562 5_OTHER + 6_BAD <= 0
_C69: - 0.999999732003 5_BAD + 6_BAD >= 0
_C7: - 7.16041811491e-08 0_BAD - 6.11018138507e-08 0_GOOD
 - 0.99999995479 0_OTHER + 1_OTHER <= 0
_C70: - 6.22595832812e-08 5_BAD - 0.99999995479 5_GOOD
 - 2.69681255586e-08 5_OTHER + 6_GOOD <= 0
_C71: - 4.52098059793e-08 5_BAD - 0.999999695403 5_GOOD + 6_GOOD >= 0
_C72: - 7.16041811491e-08 5_BAD - 6.11018138507e-08 5_GOOD
 - 0.99999995479 5_OTHER + 6_OTHER <= 0
_C73: - 0.999875127963 5_OTHER + 6_OTHER >= 0
_C74: - 1.34133688292e-07 5_BAD - 5_BADEND + 6_BADEND <= 0
_C75: - 4.52098059793e-08 5_BAD - 5_BADEND + 6_BADEND >= 0
_C76: - 1.34133688292e-07 5_GOOD - 5_GOODEND + 6_GOODEND <= 0
_C77: - 4.52098059793e-08 5_GOOD - 5_GOODEND + 6_GOODEND >= 0
_C78: - 1.34133688292e-07 5_OTHER - 5_OTHEREND + 6_OTHEREND <= 0
_C79: - 4.52098059793e-08 5_OTHER - 5_OTHEREND + 6_OTHEREND >= 0
_C8: - 0.999875127963 0_OTHER + 1_OTHER >= 0
_C80: 7_BAD + 7_BADEND + 7_GOOD + 7_GOODEND + 7_OTHER + 7_OTHEREND = 1
_C81: - 0.99999990958 6_BAD - 1.43495353004e-07 6_GOOD
 - 0.000124519166562 6_OTHER + 7_BAD <= 0
_C82: - 0.999999732003 6_BAD + 7_BAD >= 0
_C83: - 6.22595832812e-08 6_BAD - 0.99999995479 6_GOOD
 - 2.69681255586e-08 6_OTHER + 7_GOOD <= 0
_C84: - 4.52098059793e-08 6_BAD - 0.999999695403 6_GOOD + 7_GOOD >= 0
_C85: - 7.16041811491e-08 6_BAD - 6.11018138507e-08 6_GOOD
 - 0.99999995479 6_OTHER + 7_OTHER <= 0
_C86: - 0.999875127963 6_OTHER + 7_OTHER >= 0
_C87: - 1.34133688292e-07 6_BAD - 6_BADEND + 7_BADEND <= 0
_C88: - 4.52098059793e-08 6_BAD - 6_BADEND + 7_BADEND >= 0
_C89: - 1.34133688292e-07 6_GOOD - 6_GOODEND + 7_GOODEND <= 0
_C9: - 1.34133688292e-07 0_BAD - 0_BADEND + 1_BADEND <= 0
_C90: - 4.52098059793e-08 6_GOOD - 6_GOODEND + 7_GOODEND >= 0
_C91: - 1.34133688292e-07 6_OTHER - 6_OTHEREND + 7_OTHEREND <= 0
_C92: - 4.52098059793e-08 6_OTHER - 6_OTHEREND + 7_OTHEREND >= 0
_C93: 8_BAD + 8_BADEND + 8_GOOD + 8_GOODEND + 8_OTHER + 8_OTHEREND = 1
_C94: - 0.99999990958 7_BAD - 1.43495353004e-07 7_GOOD
 - 0.000124519166562 7_OTHER + 8_BAD <= 0
_C95: - 0.999999732003 7_BAD + 8_BAD >= 0
_C96: - 6.22595832812e-08 7_BAD - 0.99999995479 7_GOOD
 - 2.69681255586e-08 7_OTHER + 8_GOOD <= 0
_C97: - 4.52098059793e-08 7_BAD - 0.999999695403 7_GOOD + 8_GOOD >= 0
_C98: - 7.16041811491e-08 7_BAD - 6.11018138507e-08 7_GOOD
 - 0.99999995479 7_OTHER + 8_OTHER <= 0
_C99: - 0.999875127963 7_OTHER + 8_OTHER >= 0
Bounds
 0_BAD <= 1
 0_BADEND <= 1
 0_GOOD <= 1
 0_GOODEND <= 1
 0_OTHER <= 1
 0_OTHEREND <= 1
 10_BAD <= 1
 10_BADEND <= 1
 10_GOOD <= 1
 10_GOODEND <= 1
 10_OTHER <= 1
 10_OTHEREND <= 1
 1_BAD <= 1
 1_BADEND <= 1
 1_GOOD <= 1
 1_GOODEND <= 1
 1_OTHER <= 1
 1_OTHEREND <= 1
 2_BAD <= 1
 2_BADEND <= 1
 2_GOOD <= 1
 2_GOODEND <= 1
 2_OTHER <= 1
 2_OTHEREND <= 1
 3_BAD <= 1
 3_BADEND <= 1
 3_GOOD <= 1
 3_GOODEND <= 1
 3_OTHER <= 1
 3_OTHEREND <= 1
 4_BAD <= 1
 4_BADEND <= 1
 4_GOOD <= 1
 4_GOODEND <= 1
 4_OTHER <= 1
 4_OTHEREND <= 1
 5_BAD <= 1
 5_BADEND <= 1
 5_GOOD <= 1
 5_GOODEND <= 1
 5_OTHER <= 1
 5_OTHEREND <= 1
 6_BAD <= 1
 6_BADEND <= 1
 6_GOOD <= 1
 6_GOODEND <= 1
 6_OTHER <= 1
 6_OTHEREND <= 1
 7_BAD <= 1
 7_BADEND <= 1
 7_GOOD <= 1
 7_GOODEND <= 1
 7_OTHER <= 1
 7_OTHEREND <= 1
 8_BAD <= 1
 8_BADEND <= 1
 8_GOOD <= 1
 8_GOODEND <= 1
 8_OTHER <= 1
 8_OTHEREND <= 1
 9_BAD <= 1
 9_BADEND <= 1
 9_GOOD <= 1
 9_GOODEND <= 1
 9_OTHER <= 1
 9_OTHEREND <= 1
 z_final <= 1
End
